\* Problem: Generate Non-Integer shares *\

Minimize
 z: + lamda + 0 x_5

Subject To
 c1: + e3 + e2 + e1 <= 1
 c2: + lamda + e3 + e1 >= 10.2753428662717
 c3: + lamda + e2 + e1 >= 8.27533582152984
 c4: + lamda + e3 + e2 >= 8.27533582152984

Bounds
 0 <= e1 <= 1
 0 <= e2 <= 1
 0 <= e3 <= 1
 x_5 = 0

End
